
220.0
220.0
220.0
220.0
220.0
220.0
220.0
270.0
220.0
270.0
220.0
220.0
380.0
300.0
220.0
220.0
220.0
220.0
220.0
220.0
220.0
220.0
220.0
220.0
220.0
220.0
250.0
220.0
330.0
220.0
220.0
220.0
220.0
220.0
220.0
220.0
220.0
230.0
220.0
220.0
220.0
220.0
220.0
230.0
220.0
220.0
220.0
220.0
220.0
220.0
220.0
220.0
220.0
220.0
290.0
220.0
220.0
220.0
220.0
220.0
220.0
220.0
220.0
220.0
220.0
220.0
220.0
220.0
220.0
220.0